/* 2 */

/* Objective function */
min: +C3;

/* Constraints */
+1.5 C1 +2.4 C2 -C3 <= -0.09;
+3.5 C1 +2.67 C2 -C3 <= -0.09;
-4166666666.7 C2 -C3 <= -0.09;
-6666666670.57 C1 +2.4 C2 -C3 <= -0.09;

/* Variable bounds */
C1 >= -10000000000;
C2 >= -10000000000;
C3 >= -10000000000;
